(set-logic ALL)
(set-option :produce-models true)
(define-fun-rec str.toLower ((x String)) String
  (ite (= x "")
      ""
      (let ((Head (str.at x 0)))
        (str.++ 
          (ite (and (<= 65 (str.to_code Head)) 
                     (<= (str.to_code Head) 90))
               (str.from_code (+ (str.to_code Head) 32))
               Head)
          (str.toLower (str.substr x 1 (- (str.len x) 1)))))))
(declare-fun sym249 () String)
(declare-fun sym404 () String)
(declare-fun sym646 () String)
(declare-fun sym484 () String)
(declare-fun sym440 () String)
(declare-fun sym200 () String)
(declare-fun sym323 () String)
(declare-fun sym566 () String)
(declare-fun sym600 () String)
(declare-fun sym160 () String)
(declare-fun sym284 () String)
(declare-fun sym414 () String)
(declare-fun sym656 () String)
(declare-fun sym338 () String)
(declare-fun sym494 () String)
(declare-fun sym450 () String)
(declare-fun sym374 () String)
(declare-fun sym298 () String)
(declare-fun sym210 () String)
(declare-fun sym135 () String)
(declare-fun sym576 () String)
(declare-fun sym532 () String)
(declare-fun sym610 () String)
(declare-fun sym170 () String)
(declare-fun sym690 () String)
(declare-fun sym700 () String)
(declare-fun sym348 () String)
(declare-fun sym20 () String)
(declare-fun sym504 () String)
(declare-fun sym384 () String)
(declare-fun sym264 () String)
(declare-fun sym145 () String)
(declare-fun sym542 () String)
(declare-fun sym620 () String)
(declare-fun sym224 () String)
(declare-fun sym666 () String)
(declare-fun sym180 () String)
(declare-fun sym460 () String)
(declare-fun sym239 () String)
(declare-fun sym636 () String)
(declare-fun sym518 () String)
(declare-fun sym274 () String)
(declare-fun sym430 () String)
(declare-fun sym113 () String)
(declare-fun sym313 () String)
(declare-fun sym676 () String)
(declare-fun sym358 () String)
(declare-fun sym556 () String)
(declare-fun sym710 () String)
(declare-fun sym190 () String)
(declare-fun sym590 () String)
(declare-fun sym470 () String)
(declare-fun sym394 () String)

(assert (not (= (str.toLower sym494 )(str.toLower "description" ))))
(assert (= (str.toLower sym504 )(str.toLower "field" )))
(assert (= (str.toLower sym113 )(str.toLower "database" )))
(assert (not (= (str.toLower sym404 )(str.toLower "length" ))))
(assert (= (str.toLower sym620 )(str.toLower "length" )))
(assert (not (= (str.toLower sym636 )(str.toLower "name" ))))
(assert (not (= (str.toLower sym239 )(str.toLower "name" ))))
(assert (not (= (str.toLower sym384 )(str.toLower "description" ))))
(assert (not (= (str.toLower sym566 )(str.toLower "description" ))))
(assert (= (str.toLower sym284 )(str.toLower "field" )))
(assert (= (str.toLower sym358 )(str.toLower "type" )))
(assert (= (str.toLower sym249 )(str.toLower "description" )))
(assert (not (= (str.toLower sym374 )(str.toLower "name" ))))
(assert (not (= (str.toLower sym180 )(str.toLower "table" ))))
(assert (not (= (str.toLower sym264 )(str.toLower "name" ))))
(assert (not (= (str.toLower sym600 )(str.toLower "description" ))))
(assert (= (str.toLower sym224 )(str.toLower "name" )))
(assert (= (str.toLower sym414 )(str.toLower "option" )))
(assert (not (= (str.toLower sym160 )(str.toLower "name" ))))
(assert (not (= (str.toLower sym190 )(str.toLower "name" ))))
(assert (= (str.toLower sym298 )(str.toLower "name" )))
(assert (not (= (str.toLower sym460 )(str.toLower "length" ))))
(assert (not (= (str.toLower sym313 )(str.toLower "name" ))))
(assert (not (= (str.toLower sym700 )(str.toLower "description" ))))
(assert (= (str.toLower sym470 )(str.toLower "option" )))
(assert (not (= (str.toLower sym430 )(str.toLower "name" ))))
(assert (not (= (str.toLower sym135 )(str.toLower "name" ))))
(assert (not (= (str.toLower sym666 )(str.toLower "length" ))))
(assert (not (= (str.toLower sym338 )(str.toLower "name" ))))
(assert (= (str.toLower sym576 )(str.toLower "type" )))
(assert (= (str.toLower sym676 )(str.toLower "option" )))
(assert (not (= (str.toLower sym348 )(str.toLower "description" ))))
(assert (not (= (str.toLower sym532 )(str.toLower "name" ))))
(assert (not (= (str.toLower sym450 )(str.toLower "type" ))))
(assert (= (str.toLower sym542 )(str.toLower "description" )))
(assert (not (= (str.toLower sym690 )(str.toLower "name" ))))
(assert (not (= (str.toLower sym590 )(str.toLower "name" ))))
(assert (= (str.toLower sym323 )(str.toLower "description" )))
(assert (not (= (str.toLower sym200 )(str.toLower "description" ))))
(assert (= (str.toLower sym20 )"html" ))
(assert (= (str.toLower sym210 )(str.toLower "table" )))
(assert (= (str.toLower sym145 )(str.toLower "description" )))
(assert (not (= (str.toLower sym394 )(str.toLower "type" ))))
(assert (not (= (str.toLower sym170 )(str.toLower "description" ))))
(assert (not (= (str.toLower sym484 )(str.toLower "name" ))))
(assert (not (= (str.toLower sym20 )"sql" )))
(assert (not (= (str.toLower sym274 )(str.toLower "description" ))))
(assert (not (= (str.toLower sym556 )(str.toLower "name" ))))
(assert (not (= (str.toLower sym710 )(str.toLower "field" ))))
(assert (= (str.toLower sym518 )(str.toLower "name" )))
(assert (not (= (str.toLower sym646 )(str.toLower "description" ))))
(assert (not (= (str.toLower sym440 )(str.toLower "description" ))))
(assert (not (= (str.toLower sym656 )(str.toLower "type" ))))
(assert (not (= (str.toLower sym610 )(str.toLower "type" ))))
(check-sat)
(get-model)
(exit)
